p cnf 12 50 
-6 12 5 0
5 -4 -9 0
10 3 -6 0
-6 -8 -12 0
7 -1 2 0
-2 8 -12 0
10 2 -11 0
-8 -6 -2 0
1 -4 -12 0
-10 -9 7 0
12 10 8 0
-10 -7 -11 0
-9 -2 -1 0
9 -12 8 0
5 7 12 0
4 -5 3 0
-10 9 1 0
4 -10 -8 0
8 -7 11 0
3 -7 4 0
-6 2 -12 0
-3 12 -5 0
-5 4 -8 0
-4 -5 11 0
12 1 -10 0
-9 -12 10 0
-10 -3 -4 0
-2 9 -6 0
-2 3 -6 0
-12 8 -6 0
1 8 5 0
-5 3 -7 0
-11 -2 6 0
-10 6 7 0
4 10 -7 0
-5 -11 10 0
8 7 4 0
10 2 6 0
-4 -8 7 0
-6 -12 -7 0
-5 1 4 0
12 -1 -5 0
9 11 1 0
-1 11 -5 0
-4 -5 -7 0
-8 1 10 0
-5 -11 -8 0
10 -6 12 0
-12 -7 4 0
6 -9 11 0
